171352
35,75,32,7,18,49,37,39,73,48,85,70,94,78,3,101,38,104,67,41,11,95,54,71,36,105,96,60,53,84,33,2,82,51,100,99,68,19,42,81,50,26,34,9,83,57,23,92,80,89,93,12,72,45,25,62,22,86,46,77,6,40,56,20,16,64,90,17,21,69,88,13,31,65,52,5,55,29,30,98,106,97,8,63,103,4,15,91,79,43,61,47,14,102,24,58,1,87,28,27,10,44,59,66,76,74